0 9 10 22 17 38 9 33 31 5 6 4
9 0 27 7 29 17 35 5 43 38 26 4
10 27 0 9 48 37 47 36 29 18 39 40
22 7 9 0 16 27 11 43 46 3 7 43
17 29 48 16 0 8 9 48 6 39 17 50
38 17 37 27 8 0 37 37 45 17 47 44
9 35 47 11 9 37 0 40 48 2 31 3
33 5 36 43 48 37 40 0 19 46 23 34
31 43 29 46 6 45 48 19 0 46 47 47
5 38 18 3 39 17 2 46 46 0 45 16
6 26 39 7 17 47 31 23 47 45 0 7
4 4 40 43 50 44 3 34 47 16 7 0
